NAME : optical-integer.pruned_global_16.tour
TYPE : TOUR
DIMENSION : 174
TOUR_SECTION
1
70
71
74
75
78
79
82
83
87
131
144
148
149
154
155
158
2
39
45
46
51
88
98
100
102
115
117
120
130
157
3
68
69
72
73
76
77
80
81
84
85
89
90
91
92
93
94
95
96
104
105
107
108
109
112
113
114
145
4
58
59
62
63
66
67
132
134
138
169
173
174
5
37
38
40
43
49
50
53
55
97
116
127
139
167
168
6
48
103
111
129
137
161
165
166
7
56
57
60
61
64
65
133
141
159
160
162
163
164
170
171
172
8
11
12
15
16
19
20
23
24
27
28
31
32
35
36
47
52
99
101
106
110
118
119
121
122
123
124
125
126
128
136
146
9
10
13
14
17
18
21
22
25
26
29
30
33
34
41
42
44
54
86
135
140
142
143
147
150
151
152
153
156
-1
EOF
